NAME : random_10
COMMENT : 60 random nodes
TYPE : TSP
DIMENSION : 60
EDGE_WEIGHT_TYPE : EUC_2D
NODE_COORD_SECTION
1 188 368
2 131 583
3 956 855
4 222 156
5 505 831
6 568 186
7 628 626
8 187 404
9 163 476
10 276 415
11 418 472
12 802 434
13 951 764
14 441 673
15 587 369
16 98 6
17 978 583
18 537 999
19 71 973
20 581 662
21 240 7
22 681 127
23 998 727
24 348 355
25 373 702
26 498 338
27 125 574
28 837 391
29 845 940
30 802 773
31 50 398
32 548 115
33 745 777
34 868 16
35 581 441
36 80 385
37 7 967
38 307 482
39 399 877
40 883 785
41 421 368
42 72 725
43 643 915
44 833 135
45 71 539
46 479 467
47 539 62
48 332 927
49 797 958
50 703 387
51 65 855
52 440 910
53 494 221
54 253 674
55 241 379
56 887 646
57 523 132
58 439 508
59 715 671
60 965 215
EOF